DATASET = "thpack2";
INSTANCE = "008";

WIDTH = 233;
HEIGHT = 220;
LENGTH = 587;

NO_OF_SHAPES = 5;
size = [|
  75,58,57 |
  57,37,30 |
  79,74,35 |
  104,99,74 |
  55,46,31 |
|];

verticality = [|
  1,1,1 |
  1,1,1 |
  0,0,1 |
  1,1,1 |
  1,1,1 |
|];

box_count = [
  20,
  24,
  30,
  20,
  28,
];
